10
2147483647 64 66 78 84 9 56 15 8 56 
64 2147483647 19 71 10 49 19 100 46 89 
66 19 2147483647 50 85 65 19 63 70 1 
78 71 50 2147483647 42 51 41 69 72 35 
84 10 85 42 2147483647 33 62 1 24 7 
9 49 65 51 33 2147483647 26 76 69 87 
56 19 19 41 62 26 2147483647 16 65 82 
15 100 63 69 1 76 16 2147483647 26 7 
8 46 70 72 24 69 65 26 2147483647 89 
56 89 1 35 7 87 82 7 89 2147483647 
